p cnf 647
-5 -57
-6 -63
-7 -66
-8 -69
-9 -72
-10 -75
-11 -78
-12 -81
-13 -84
-14 -87
-15 -90
-16 -93
-17 -96
-18 -99
-19 -102
-20 -105
-21 -108
-22 -111
-23 -114
-24 -117
-25 -120
-26 -123
-27 -126
-28 -129
-29 -132
-30 -135
-31 -139
-32 -143
-33 -147
-34 -151
-35 -155
-36 -159
-37 -163
-38 -167
-39 -171
-40 -175
-41 -179
-42 -183
-43 -187
-44 -191
-45 -195
-46 -199
-47 -203
-48 -207
-49 -211
-50 -215
-51 -219
-52 -223
-53 -227
-54 -3
-54 4
3 -4 54
-55 1
-55 54
-1 -54 55
-56 5
-56 -54
-5 54 56
-57 -55
-57 -56
55 56 57
-58 1
-58 -5
-1 5 58
-59 54
-59 58
-54 -58 59
-60 29
-60 59
-29 -59 60
-61 6
-61 -59
-6 59 61
-62 -60
-62 -61
60 61 62
-63 4
-63 62
-4 -62 63
-64 6
-64 59
-6 -59 64
-65 7
-65 -59
-7 59 65
-66 -64
-66 -65
64 65 66
-67 7
-67 59
-7 -59 67
-68 8
-68 -59
-8 59 68
-69 -67
-69 -68
67 68 69
-70 8
-70 59
-8 -59 70
-71 9
-71 -59
-9 59 71
-72 -70
-72 -71
70 71 72
-73 9
-73 59
-9 -59 73
-74 10
-74 -59
-10 59 74
-75 -73
-75 -74
73 74 75
-76 10
-76 59
-10 -59 76
-77 11
-77 -59
-11 59 77
-78 -76
-78 -77
76 77 78
-79 11
-79 59
-11 -59 79
-80 12
-80 -59
-12 59 80
-81 -79
-81 -80
79 80 81
-82 12
-82 59
-12 -59 82
-83 13
-83 -59
-13 59 83
-84 -82
-84 -83
82 83 84
-85 13
-85 59
-13 -59 85
-86 14
-86 -59
-14 59 86
-87 -85
-87 -86
85 86 87
-88 14
-88 59
-14 -59 88
-89 15
-89 -59
-15 59 89
-90 -88
-90 -89
88 89 90
-91 15
-91 59
-15 -59 91
-92 16
-92 -59
-16 59 92
-93 -91
-93 -92
91 92 93
-94 16
-94 59
-16 -59 94
-95 17
-95 -59
-17 59 95
-96 -94
-96 -95
94 95 96
-97 17
-97 59
-17 -59 97
-98 18
-98 -59
-18 59 98
-99 -97
-99 -98
97 98 99
-100 18
-100 59
-18 -59 100
-101 19
-101 -59
-19 59 101
-102 -100
-102 -101
100 101 102
-103 19
-103 59
-19 -59 103
-104 20
-104 -59
-20 59 104
-105 -103
-105 -104
103 104 105
-106 20
-106 59
-20 -59 106
-107 21
-107 -59
-21 59 107
-108 -106
-108 -107
106 107 108
-109 21
-109 59
-21 -59 109
-110 22
-110 -59
-22 59 110
-111 -109
-111 -110
109 110 111
-112 22
-112 59
-22 -59 112
-113 23
-113 -59
-23 59 113
-114 -112
-114 -113
112 113 114
-115 23
-115 59
-23 -59 115
-116 24
-116 -59
-24 59 116
-117 -115
-117 -116
115 116 117
-118 24
-118 59
-24 -59 118
-119 25
-119 -59
-25 59 119
-120 -118
-120 -119
118 119 120
-121 25
-121 59
-25 -59 121
-122 26
-122 -59
-26 59 122
-123 -121
-123 -122
121 122 123
-124 26
-124 59
-26 -59 124
-125 27
-125 -59
-27 59 125
-126 -124
-126 -125
124 125 126
-127 27
-127 59
-27 -59 127
-128 28
-128 -59
-28 59 128
-129 -127
-129 -128
127 128 129
-130 28
-130 59
-28 -59 130
-131 29
-131 -59
-29 59 131
-132 -130
-132 -131
130 131 132
-133 2
-133 64
-2 -64 133
-134 30
-134 -64
-30 64 134
-135 -133
-135 -134
133 134 135
-136 31
-136 -64
-31 64 136
-137 2
-137 67
-2 -67 137
-138 -67
-138 136
67 -136 138
-139 -137
-139 -138
137 138 139
-140 32
-140 -64
-32 64 140
-141 2
-141 70
-2 -70 141
-142 -70
-142 140
70 -140 142
-143 -141
-143 -142
141 142 143
-144 33
-144 -64
-33 64 144
-145 2
-145 73
-2 -73 145
-146 -73
-146 144
73 -144 146
-147 -145
-147 -146
145 146 147
-148 34
-148 -64
-34 64 148
-149 2
-149 76
-2 -76 149
-150 -76
-150 148
76 -148 150
-151 -149
-151 -150
149 150 151
-152 35
-152 -64
-35 64 152
-153 2
-153 79
-2 -79 153
-154 -79
-154 152
79 -152 154
-155 -153
-155 -154
153 154 155
-156 36
-156 -64
-36 64 156
-157 2
-157 82
-2 -82 157
-158 -82
-158 156
82 -156 158
-159 -157
-159 -158
157 158 159
-160 37
-160 -64
-37 64 160
-161 2
-161 85
-2 -85 161
-162 -85
-162 160
85 -160 162
-163 -161
-163 -162
161 162 163
-164 38
-164 -64
-38 64 164
-165 2
-165 88
-2 -88 165
-166 -88
-166 164
88 -164 166
-167 -165
-167 -166
165 166 167
-168 39
-168 -64
-39 64 168
-169 2
-169 91
-2 -91 169
-170 -91
-170 168
91 -168 170
-171 -169
-171 -170
169 170 171
-172 40
-172 -64
-40 64 172
-173 2
-173 94
-2 -94 173
-174 -94
-174 172
94 -172 174
-175 -173
-175 -174
173 174 175
-176 41
-176 -64
-41 64 176
-177 2
-177 97
-2 -97 177
-178 -97
-178 176
97 -176 178
-179 -177
-179 -178
177 178 179
-180 42
-180 -64
-42 64 180
-181 2
-181 100
-2 -100 181
-182 -100
-182 180
100 -180 182
-183 -181
-183 -182
181 182 183
-184 43
-184 -64
-43 64 184
-185 2
-185 103
-2 -103 185
-186 -103
-186 184
103 -184 186
-187 -185
-187 -186
185 186 187
-188 44
-188 -64
-44 64 188
-189 2
-189 106
-2 -106 189
-190 -106
-190 188
106 -188 190
-191 -189
-191 -190
189 190 191
-192 45
-192 -64
-45 64 192
-193 2
-193 109
-2 -109 193
-194 -109
-194 192
109 -192 194
-195 -193
-195 -194
193 194 195
-196 46
-196 -64
-46 64 196
-197 2
-197 112
-2 -112 197
-198 -112
-198 196
112 -196 198
-199 -197
-199 -198
197 198 199
-200 47
-200 -64
-47 64 200
-201 2
-201 115
-2 -115 201
-202 -115
-202 200
115 -200 202
-203 -201
-203 -202
201 202 203
-204 48
-204 -64
-48 64 204
-205 2
-205 118
-2 -118 205
-206 -118
-206 204
118 -204 206
-207 -205
-207 -206
205 206 207
-208 49
-208 -64
-49 64 208
-209 2
-209 121
-2 -121 209
-210 -121
-210 208
121 -208 210
-211 -209
-211 -210
209 210 211
-212 50
-212 -64
-50 64 212
-213 2
-213 124
-2 -124 213
-214 -124
-214 212
124 -212 214
-215 -213
-215 -214
213 214 215
-216 51
-216 -64
-51 64 216
-217 2
-217 127
-2 -127 217
-218 -127
-218 216
127 -216 218
-219 -217
-219 -218
217 218 219
-220 52
-220 -64
-52 64 220
-221 2
-221 130
-2 -130 221
-222 -130
-222 220
130 -220 222
-223 -221
-223 -222
221 222 223
-224 53
-224 -64
-53 64 224
-225 2
-225 60
-2 -60 225
-226 -60
-226 224
60 -224 226
-227 -225
-227 -226
225 226 227
-228 6
-228 54
-6 -54 228
-229 30
-229 -31
-30 31 229
-230 32
-230 -33
-32 33 230
-231 34
-231 35
-34 -35 231
-232 -36
-232 37
36 -37 232
-233 38
-233 39
-38 -39 233
-234 40
-234 41
-40 -41 234
-235 42
-235 -43
-42 43 235
-236 -44
-236 -45
44 45 236
-237 -46
-237 47
46 -47 237
-238 -48
-238 49
48 -49 238
-239 -50
-239 51
50 -51 239
-240 -52
-240 -53
52 53 240
-241 229
-241 230
-229 -230 241
-242 231
-242 232
-231 -232 242
-243 233
-243 234
-233 -234 243
-244 235
-244 236
-235 -236 244
-245 237
-245 238
-237 -238 245
-246 239
-246 240
-239 -240 246
-247 241
-247 242
-241 -242 247
-248 243
-248 244
-243 -244 248
-249 245
-249 246
-245 -246 249
-250 247
-250 248
-247 -248 250
-251 249
-251 250
-249 -250 251
-252 228
-252 251
-228 -251 252
252
